
Gurobi 7.5.1 (linux64, Python) logging started Sat Feb 24 20:15:40 2018


Gurobi 7.5.1 (linux64, Python) logging started Sat Feb 24 20:24:09 2018


Gurobi 7.5.1 (linux64, Python) logging started Sat Feb 24 20:24:53 2018


Gurobi 7.5.1 (linux64, Python) logging started Sat Feb 24 20:25:44 2018


Gurobi 7.5.1 (linux64, Python) logging started Sat Feb 24 20:26:02 2018


Gurobi 7.5.1 (linux64, Python) logging started Sat Feb 24 20:27:32 2018


Gurobi 7.5.1 (linux64, Python) logging started Sat Feb 24 20:28:27 2018

